
<<< setup


<<< generate

Version identifier: 22.1.1.0 | 2022-11-28 | 9160aff4d
CPXPARAM_TimeLimit                               1800
Tried aggregator 1 time.
MIP Presolve eliminated 5150 rows and 9900 columns.
Reduced MIP has 19801 rows, 10200 columns, and 59500 nonzeros.
Reduced MIP has 10000 binaries, 200 generals, 0 SOSs, and 0 indicators.
Presolve time = 0.01 sec. (26.30 ticks)
Probing time = 0.00 sec. (5.73 ticks)
Tried aggregator 1 time.
Detecting symmetries...
MIP Presolve eliminated 1 rows and 100 columns.
Reduced MIP has 19800 rows, 10100 columns, and 59400 nonzeros.
Reduced MIP has 9900 binaries, 200 generals, 0 SOSs, and 0 indicators.
Presolve time = 0.01 sec. (26.35 ticks)
Probing time = 0.00 sec. (5.70 ticks)
MIP emphasis: balance optimality and feasibility.
MIP search method: dynamic search.
Parallel mode: deterministic, using up to 8 threads.
Root relaxation solution time = 0.06 sec. (117.75 ticks)

        Nodes                                         Cuts/
   Node  Left     Objective  IInf  Best Integer    Best Bound    ItCnt     Gap

      0     0     4611.0000  7942                   4611.0000     1238         
*     0+    0                         4611.0000     4611.0000             0.00%
      0     0        cutoff           4611.0000     4611.0000     1238    0.00%
Elapsed time = 3.07 sec. (9885.26 ticks, tree = 0.01 MB, solutions = 1)

Root node processing (before b&c):
  Real time             =    3.07 sec. (9886.07 ticks)
Parallel b&c, 8 threads:
  Real time             =    0.00 sec. (0.00 ticks)
  Sync time (average)   =    0.00 sec.
  Wait time (average)   =    0.00 sec.
                          ------------
Total (root+branch&cut) =    3.07 sec. (9886.07 ticks)

<<< solve


OBJECTIVE: 4611

<<< post process


<<< done

